% demand
num_movements = 25;
loading_factor = [1150, 1250, 1150, 1100, 1850, 950, 1800, 1500, 1850, 1100, 800, 850, 1750, 1450, 1800, 1750, 900, 1400, 1600, 1700, 1200, 1150, 950, 1800, 1150];
pickup_time = [0, 0, 0, 0, 1, 1, 1, 1, 1, 1, 1, 3, 3, 4, 4, 5, 6, 7, 7, 7, 7, 9, 10, 10, 10];
delivery_time = [1, 1, 3, 1, 2, 3, 6, 2, 2, 2, 8, 7, 11, 5, 9, 7, 7, 11, 11, 9, 11, 11, 11, 11, 11];

% transporter definition
total_capacity = 11000;
num_decks = 4;
capacity = [3000, 3000, 1000, 4000];

% ways out of decks
num_ways_out = 2;
paths_out = array3d(decks, ways_out, decks, [
% ways out of deck d1
2, 4, 0, 0, 3, 4, 0, 0, 

% ways out of deck d2
4, 0, 0, 0, 0, 0, 0, 0,	

% ways out of deck d3
4, 0, 0, 0, 0, 0, 0, 0,	

% ways out of deck d4
0, 0, 0, 0,	0, 0, 0, 0,	

]);

